12 40 3 10
4 11 17 12 16 4 2 19 17 19 8 5 7 18 14 12 10 12 16 7 19 20 10 8 16 13 20 4 7 5 14 20 19 4 13 11 1 12 5 4 
3.85 0.52 15.04 7.6 2.36 6.55 2.48 8.26 11.94 6.05 10.4 13.02 11.63 10.01 0.24 0.95 14.4 13.52 2.72 8.34 2.2 3.83 12.22 14.94 4.85 11.4 0.58 11.65 9.24 1.43 15.06 6.58 0.18 0.95 11.48 3.6 2.08 10.89 11.88 15.53 
1.24 7.33 4.51 10.23 5.27 12.35 12.29 12.05 1.3 14.92 2.52 11.52 4.09 6.07 8.59 2.9 7.54 0.44 3.04 14.84 15.57 5.49 15.6 6.21 9.87 7.35 0.44 5.68 13.79 4.64 7.17 3.32 7.06 0.87 1.79 9.4 15.89 9.38 14.59 10.55 
11.21 12.4 12.32 4.32 0.06 8.98 9.83 5.95 0.77 12.14 15 1.03 10.08 11.51 0.39 9.07 8.08 10.44 12.52 1.4 7.47 11.76 9.85 14.28 9.03 9.95 9.28 5.12 9.99 5.34 2.9 1.12 5.7 11.15 3.58 11.6 10.03 4.7 10.96 13.4 
8 8 8 8 8 8 8 8 8 8 8 8 8 8 8 8 8 8 8 8 8 8 8 8 8 8 8 8 8 8 8 8 8 8 8 8 8 8 8 8 
0.85 8.71 10.12 10.5 0.42 9.84 13.12 6.39 5.17 9.59 15.62 15.43 1.87 5.54 8.97 8.53 0.83 13.11 11.37 10.82 13.15 8.66 7.05 1.87 5.58 13.33 6.01 7.36 3.3 14.82 8.22 8.07 1.9 6.68 9.22 12.31 13.07 11.3 14.54 7.71 
2.18 0.89 12.95 6.79 7.58 0.76 13.12 6.22 14.59 13.13 2.84 4.15 14.75 13.66 13.94 14.14 2.35 9.69 1.9 1.8 11.7 5.5 7.4 8.62 0.16 3.15 6.39 6.54 14.31 3.55 7.19 5.45 5.83 6.47 14.58 7.02 15.37 11.44 3.39 12.85 
8.55 7.76 14.16 2.43 3.32 5.25 8.07 6.95 12.83 0.98 1.48 8.09 9.98 9.49 11.27 4.72 14.59 1.03 15.14 15.77 2.16 13.44 1.48 14.98 7.01 15.93 8.62 6.83 2.56 9.55 11.04 0.23 15.14 6.4 9.64 0.76 6.42 5.99 10.72 14.4 
0.96 2.47 3.95 11.45 2.54 11.14 11.5 3.53 11.35 11.99 15.95 2.97 13.36 4.98 14.75 5.04 4.77 11.63 4.61 13.27 13.92 2.11 8.16 10.25 9.38 8.53 10.63 10.57 6.8 1.01 2.37 12.54 1.91 12.38 5.2 0.07 5.32 4.53 4.3 2.25 
1.31 15.05 3.78 9.67 11.46 11.3 14.73 15.35 2.91 4.37 9.81 4.47 11.5 10.86 4.45 9.84 4.08 9.82 8 0.93 14.09 9.24 12.21 9.55 12.67 6.51 3 6.24 7.14 6.07 3.21 0.76 12.11 0.76 1.51 6.29 11.89 12.23 13.19 1.97 
4.98 9.4 6.74 1.11 1.3 7.37 13.27 4.06 9.23 7.34 13.56 15.36 0.39 13.81 5.28 5.89 6.76 13.66 3.13 0.41 11.44 7.16 9.87 14.01 15.54 13.89 3.91 8.77 7.57 14.19 3.11 14.36 6.67 0.86 14.74 9.66 8.6 11.61 13.94 8.76 
10.7 15.31 2.25 9.92 11.79 2.15 12.54 13.69 1.19 10.35 6.1 4.71 12.07 14.83 12.82 3.89 7.75 14.59 7.81 5.86 5.19 11.58 2.46 13.94 4.27 15.7 7.58 7.53 12.04 10.04 7.41 9.63 0.01 5.79 6.63 11.39 9.81 8.21 2.92 6.88 
3.97 6.98 1.16 13.05 0.08 13.24 13.16 1.29 13.37 9.27 9.02 3.87 12.86 0.86 13.36 8.11 4.51 0.17 1.47 5.82 5.66 4.86 14.28 8.44 14.01 2.82 14.5 13.99 8.48 12.8 0.12 3.67 14.48 15.88 7.02 4.93 7.09 0.61 8.49 7.38 
1 1 1 1 1 1 1 1 1 1 1 1 1 1 1 1 1 1 1 1 1 1 1 1 1 1 1 1 1 1 1 1 1 1 1 1 1 1 1 1 
1 1 1 1 1 1 1 1 1 1 1 1 1 1 1 1 1 1 1 1 1 1 1 1 1 1 1 1 1 1 1 1 1 1 1 1 1 1 1 1 
1 1 1 1 1 1 1 1 1 1 1 1 1 1 1 1 1 1 1 1 1 1 1 1 1 1 1 1 1 1 1 1 1 1 1 1 1 1 1 1 
1 1 1 1 1 1 1 1 1 1 1 1 1 1 1 1 1 1 1 1 1 1 1 1 1 1 1 1 1 1 1 1 1 1 1 1 1 1 1 1 
1 1 1 1 1 1 1 1 1 1 1 1 1 1 1 1 1 1 1 1 1 1 1 1 1 1 1 1 1 1 1 1 1 1 1 1 1 1 1 1 
1 1 1 1 1 1 1 1 1 1 1 1 1 1 1 1 1 1 1 1 1 1 1 1 1 1 1 1 1 1 1 1 1 1 1 1 1 1 1 1 
1 1 1 1 1 1 1 1 1 1 1 1 1 1 1 1 1 1 1 1 1 1 1 1 1 1 1 1 1 1 1 1 1 1 1 1 1 1 1 1 
1 1 1 1 1 1 1 1 1 1 1 1 1 1 1 1 1 1 1 1 1 1 1 1 1 1 1 1 1 1 1 1 1 1 1 1 1 1 1 1 
1 1 1 1 1 1 1 1 1 1 1 1 1 1 1 1 1 1 1 1 1 1 1 1 1 1 1 1 1 1 1 1 1 1 1 1 1 1 1 1 
1 1 1 1 1 1 1 1 1 1 1 1 1 1 1 1 1 1 1 1 1 1 1 1 1 1 1 1 1 1 1 1 1 1 1 1 1 1 1 1 
1 1 1 1 1 1 1 1 1 1 1 1 1 1 1 1 1 1 1 1 1 1 1 1 1 1 1 1 1 1 1 1 1 1 1 1 1 1 1 1 
1 1 1 1 1 1 1 1 1 1 1 1 1 1 1 1 1 1 1 1 1 1 1 1 1 1 1 1 1 1 1 1 1 1 1 1 1 1 1 1 
0.01 0.01 0.01 0.01 0.01 0.01 0.01 0.01 0.01 0.01 0.01 0.01 0.01 0.01 0.01 0.01 0.01 0.01 0.01 0.01 0.01 0.01 0.01 0.01 0.01 0.01 0.01 0.01 0.01 0.01 0.01 0.01 0.01 0.01 0.01 0.01 0.01 0.01 0.01 0.01 
0.02 0.02 0.02 0.02 0.02 0.02 0.02 0.02 0.02 0.02 0.02 0.02 0.02 0.02 0.02 0.02 0.02 0.02 0.02 0.02 0.02 0.02 0.02 0.02 0.02 0.02 0.02 0.02 0.02 0.02 0.02 0.02 0.02 0.02 0.02 0.02 0.02 0.02 0.02 0.02 
0.03 0.03 0.03 0.03 0.03 0.03 0.03 0.03 0.03 0.03 0.03 0.03 0.03 0.03 0.03 0.03 0.03 0.03 0.03 0.03 0.03 0.03 0.03 0.03 0.03 0.03 0.03 0.03 0.03 0.03 0.03 0.03 0.03 0.03 0.03 0.03 0.03 0.03 0.03 0.03 
0.04 0.04 0.04 0.04 0.04 0.04 0.04 0.04 0.04 0.04 0.04 0.04 0.04 0.04 0.04 0.04 0.04 0.04 0.04 0.04 0.04 0.04 0.04 0.04 0.04 0.04 0.04 0.04 0.04 0.04 0.04 0.04 0.04 0.04 0.04 0.04 0.04 0.04 0.04 0.04 
0.125 0.125 0.125 0.125 0.125 0.125 0.125 0.125 0.125 0.125 0.125 0.125 0.125 0.125 0.125 0.125 0.125 0.125 0.125 0.125 0.125 0.125 0.125 0.125 0.125 0.125 0.125 0.125 0.125 0.125 0.125 0.125 0.125 0.125 0.125 0.125 0.125 0.125 0.125 0.125 
0.25 0.25 0.25 0.25 0.25 0.25 0.25 0.25 0.25 0.25 0.25 0.25 0.25 0.25 0.25 0.25 0.25 0.25 0.25 0.25 0.25 0.25 0.25 0.25 0.25 0.25 0.25 0.25 0.25 0.25 0.25 0.25 0.25 0.25 0.25 0.25 0.25 0.25 0.25 0.25 
0.375 0.375 0.375 0.375 0.375 0.375 0.375 0.375 0.375 0.375 0.375 0.375 0.375 0.375 0.375 0.375 0.375 0.375 0.375 0.375 0.375 0.375 0.375 0.375 0.375 0.375 0.375 0.375 0.375 0.375 0.375 0.375 0.375 0.375 0.375 0.375 0.375 0.375 0.375 0.375 
0.5 0.5 0.5 0.5 0.5 0.5 0.5 0.5 0.5 0.5 0.5 0.5 0.5 0.5 0.5 0.5 0.5 0.5 0.5 0.5 0.5 0.5 0.5 0.5 0.5 0.5 0.5 0.5 0.5 0.5 0.5 0.5 0.5 0.5 0.5 0.5 0.5 0.5 0.5 0.5 
0.625 0.625 0.625 0.625 0.625 0.625 0.625 0.625 0.625 0.625 0.625 0.625 0.625 0.625 0.625 0.625 0.625 0.625 0.625 0.625 0.625 0.625 0.625 0.625 0.625 0.625 0.625 0.625 0.625 0.625 0.625 0.625 0.625 0.625 0.625 0.625 0.625 0.625 0.625 0.625 
0.75 0.75 0.75 0.75 0.75 0.75 0.75 0.75 0.75 0.75 0.75 0.75 0.75 0.75 0.75 0.75 0.75 0.75 0.75 0.75 0.75 0.75 0.75 0.75 0.75 0.75 0.75 0.75 0.75 0.75 0.75 0.75 0.75 0.75 0.75 0.75 0.75 0.75 0.75 0.75 
0.875 0.875 0.875 0.875 0.875 0.875 0.875 0.875 0.875 0.875 0.875 0.875 0.875 0.875 0.875 0.875 0.875 0.875 0.875 0.875 0.875 0.875 0.875 0.875 0.875 0.875 0.875 0.875 0.875 0.875 0.875 0.875 0.875 0.875 0.875 0.875 0.875 0.875 0.875 0.875 
1 1 1 1 1 1 1 1 1 1 1 1 1 1 1 1 1 1 1 1 1 1 1 1 1 1 1 1 1 1 1 1 1 1 1 1 1 1 1 1 
